p edge 250 3190
e 1 8
e 1 16
e 1 20
e 1 24
e 1 43
e 1 48
e 1 49
e 1 56
e 1 60
e 1 69
e 1 70
e 1 102
e 1 104
e 1 105
e 1 112
e 1 114
e 1 116
e 1 130
e 1 139
e 1 143
e 1 144
e 1 165
e 1 183
e 1 191
e 1 209
e 1 227
e 1 239
e 2 3
e 2 5
e 2 21
e 2 31
e 2 70
e 2 79
e 2 88
e 2 97
e 2 99
e 2 136
e 2 145
e 2 161
e 2 185
e 2 203
e 2 212
e 2 219
e 2 245
e 2 247
e 3 43
e 3 48
e 3 50
e 3 51
e 3 52
e 3 53
e 3 75
e 3 81
e 3 84
e 3 105
e 3 136
e 3 142
e 3 146
e 3 148
e 3 158
e 3 171
e 3 176
e 3 188
e 3 190
e 3 192
e 3 195
e 3 197
e 3 204
e 3 214
e 3 217
e 3 218
e 3 219
e 3 237
e 3 247
e 4 17
e 4 23
e 4 36
e 4 40
e 4 77
e 4 84
e 4 85
e 4 90
e 4 106
e 4 111
e 4 113
e 4 115
e 4 119
e 4 155
e 4 158
e 4 169
e 4 173
e 4 211
e 4 214
e 4 225
e 4 226
e 4 243
e 5 9
e 5 23
e 5 31
e 5 32
e 5 33
e 5 38
e 5 39
e 5 43
e 5 45
e 5 47
e 5 55
e 5 63
e 5 67
e 5 70
e 5 94
e 5 109
e 5 117
e 5 131
e 5 158
e 5 194
e 5 204
e 5 216
e 5 221
e 5 223
e 5 241
e 5 244
e 6 16
e 6 18
e 6 24
e 6 42
e 6 45
e 6 51
e 6 55
e 6 60
e 6 75
e 6 83
e 6 104
e 6 106
e 6 119
e 6 121
e 6 128
e 6 131
e 6 132
e 6 135
e 6 136
e 6 140
e 6 151
e 6 153
e 6 156
e 6 159
e 6 164
e 6 174
e 6 192
e 6 222
e 6 232
e 6 237
e 6 241
e 7 8
e 7 24
e 7 25
e 7 26
e 7 27
e 7 30
e 7 31
e 7 33
e 7 37
e 7 45
e 7 50
e 7 61
e 7 71
e 7 74
e 7 83
e 7 89
e 7 91
e 7 97
e 7 99
e 7 108
e 7 150
e 7 157
e 7 159
e 7 161
e 7 184
e 7 185
e 7 188
e 7 213
e 7 214
e 7 228
e 7 236
e 7 243
e 7 244
e 7 248
e 8 20
e 8 26
e 8 31
e 8 33
e 8 52
e 8 60
e 8 68
e 8 75
e 8 77
e 8 102
e 8 108
e 8 110
e 8 112
e 8 115
e 8 123
e 8 134
e 8 141
e 8 148
e 8 150
e 8 152
e 8 159
e 8 171
e 8 175
e 8 203
e 8 208
e 8 212
e 8 230
e 8 231
e 8 238
e 8 241
e 8 242
e 8 250
e 9 12
e 9 32
e 9 36
e 9 43
e 9 85
e 9 105
e 9 110
e 9 140
e 9 146
e 9 147
e 9 149
e 9 161
e 9 184
e 9 192
e 9 195
e 9 204
e 9 229
e 9 240
e 9 241
e 9 242
e 9 250
e 10 12
e 10 33
e 10 35
e 10 43
e 10 52
e 10 55
e 10 56
e 10 67
e 10 75
e 10 94
e 10 97
e 10 104
e 10 138
e 10 146
e 10 151
e 10 157
e 10 160
e 10 161
e 10 165
e 10 183
e 10 185
e 10 189
e 10 195
e 10 206
e 10 216
e 10 224
e 10 226
e 10 230
e 10 235
e 10 250
e 11 22
e 11 29
e 11 57
e 11 59
e 11 72
e 11 80
e 11 81
e 11 118
e 11 124
e 11 127
e 11 130
e 11 138
e 11 152
e 11 159
e 11 165
e 11 174
e 11 176
e 11 203
e 11 214
e 11 217
e 11 236
e 12 13
e 12 14
e 12 16
e 12 38
e 12 39
e 12 48
e 12 49
e 12 88
e 12 98
e 12 107
e 12 119
e 12 130
e 12 134
e 12 158
e 12 169
e 12 180
e 12 186
e 12 194
e 12 199
e 12 205
e 12 211
e 12 218
e 12 219
e 12 228
e 12 235
e 12 240
e 13 28
e 13 35
e 13 55
e 13 56
e 13 93
e 13 108
e 13 122
e 13 123
e 13 133
e 13 157
e 13 163
e 13 182
e 13 196
e 13 211
e 13 231
e 13 233
e 13 237
e 13 250
e 14 27
e 14 31
e 14 44
e 14 49
e 14 57
e 14 91
e 14 92
e 14 94
e 14 97
e 14 100
e 14 101
e 14 109
e 14 124
e 14 133
e 14 136
e 14 154
e 14 162
e 14 165
e 14 172
e 14 177
e 14 178
e 14 182
e 14 187
e 14 189
e 14 194
e 14 203
e 14 213
e 14 218
e 14 224
e 14 246
e 14 248
e 14 249
e 15 29
e 15 49
e 15 54
e 15 60
e 15 66
e 15 76
e 15 85
e 15 104
e 15 118
e 15 135
e 15 182
e 15 191
e 15 221
e 15 245
e 15 249
e 16 26
e 16 28
e 16 34
e 16 42
e 16 80
e 16 93
e 16 101
e 16 105
e 16 109
e 16 111
e 16 126
e 16 138
e 16 149
e 16 166
e 16 168
e 16 188
e 16 192
e 16 212
e 16 220
e 16 229
e 16 236
e 16 237
e 17 29
e 17 37
e 17 38
e 17 39
e 17 44
e 17 46
e 17 67
e 17 68
e 17 76
e 17 77
e 17 91
e 17 95
e 17 119
e 17 124
e 17 129
e 17 155
e 17 163
e 17 174
e 17 186
e 17 187
e 17 201
e 17 209
e 17 245
e 18 36
e 18 52
e 18 66
e 18 71
e 18 90
e 18 106
e 18 117
e 18 120
e 18 147
e 18 152
e 18 167
e 18 179
e 18 181
e 18 186
e 18 192
e 18 199
e 18 200
e 18 211
e 18 234
e 18 235
e 18 241
e 19 23
e 19 28
e 19 30
e 19 40
e 19 41
e 19 50
e 19 69
e 19 73
e 19 93
e 19 100
e 19 108
e 19 113
e 19 117
e 19 129
e 19 133
e 19 161
e 19 198
e 19 201
e 19 207
e 19 209
e 19 215
e 19 217
e 19 225
e 19 241
e 20 25
e 20 32
e 20 38
e 20 51
e 20 62
e 20 65
e 20 73
e 20 80
e 20 84
e 20 85
e 20 91
e 20 101
e 20 103
e 20 112
e 20 120
e 20 124
e 20 166
e 20 172
e 20 194
e 20 227
e 20 237
e 20 241
e 20 245
e 21 23
e 21 43
e 21 44
e 21 46
e 21 48
e 21 56
e 21 57
e 21 62
e 21 68
e 21 86
e 21 93
e 21 97
e 21 98
e 21 110
e 21 120
e 21 129
e 21 135
e 21 164
e 21 179
e 21 182
e 21 184
e 21 187
e 21 189
e 21 200
e 21 209
e 21 216
e 21 220
e 21 227
e 21 239
e 22 47
e 22 51
e 22 55
e 22 67
e 22 76
e 22 98
e 22 102
e 22 116
e 22 121
e 22 170
e 22 176
e 22 191
e 22 198
e 22 209
e 22 212
e 22 215
e 22 218
e 22 221
e 22 233
e 22 243
e 23 25
e 23 30
e 23 37
e 23 39
e 23 44
e 23 48
e 23 51
e 23 52
e 23 55
e 23 62
e 23 63
e 23 69
e 23 73
e 23 75
e 23 76
e 23 79
e 23 101
e 23 107
e 23 113
e 23 117
e 23 124
e 23 125
e 23 144
e 23 146
e 23 152
e 23 157
e 23 163
e 23 175
e 23 198
e 23 206
e 23 218
e 23 248
e 23 250
e 24 37
e 24 44
e 24 46
e 24 78
e 24 79
e 24 85
e 24 92
e 24 100
e 24 104
e 24 116
e 24 117
e 24 120
e 24 122
e 24 154
e 24 176
e 24 185
e 24 193
e 24 206
e 24 207
e 24 214
e 24 218
e 24 219
e 24 220
e 24 228
e 24 241
e 24 242
e 25 47
e 25 55
e 25 72
e 25 74
e 25 95
e 25 111
e 25 121
e 25 151
e 25 164
e 25 166
e 25 170
e 25 174
e 25 193
e 25 202
e 25 215
e 25 225
e 25 230
e 25 245
e 26 28
e 26 70
e 26 74
e 26 76
e 26 83
e 26 92
e 26 109
e 26 117
e 26 130
e 26 137
e 26 138
e 26 148
e 26 155
e 26 162
e 26 170
e 26 178
e 26 181
e 26 184
e 26 191
e 26 214
e 26 228
e 27 38
e 27 44
e 27 46
e 27 58
e 27 66
e 27 87
e 27 89
e 27 90
e 27 91
e 27 103
e 27 113
e 27 114
e 27 158
e 27 182
e 27 192
e 27 227
e 27 235
e 27 236
e 27 242
e 28 31
e 28 47
e 28 75
e 28 83
e 28 103
e 28 115
e 28 134
e 28 159
e 28 166
e 28 168
e 28 185
e 28 193
e 28 194
e 28 200
e 28 232
e 28 236
e 28 237
e 28 245
e 29 35
e 29 38
e 29 40
e 29 45
e 29 48
e 29 64
e 29 71
e 29 78
e 29 88
e 29 95
e 29 114
e 29 126
e 29 153
e 29 170
e 29 173
e 29 182
e 29 185
e 29 202
e 29 204
e 29 213
e 29 219
e 29 223
e 29 233
e 30 36
e 30 48
e 30 56
e 30 66
e 30 69
e 30 77
e 30 81
e 30 83
e 30 92
e 30 151
e 30 166
e 30 169
e 30 173
e 30 184
e 30 201
e 30 207
e 30 222
e 30 249
e 31 43
e 31 62
e 31 64
e 31 76
e 31 105
e 31 110
e 31 111
e 31 121
e 31 125
e 31 127
e 31 148
e 31 159
e 31 160
e 31 165
e 31 169
e 31 173
e 31 190
e 31 203
e 31 215
e 31 226
e 32 47
e 32 55
e 32 67
e 32 82
e 32 90
e 32 93
e 32 104
e 32 114
e 32 124
e 32 146
e 32 150
e 32 154
e 32 176
e 32 186
e 32 187
e 32 200
e 32 210
e 32 224
e 32 237
e 32 244
e 33 40
e 33 45
e 33 73
e 33 75
e 33 95
e 33 102
e 33 107
e 33 116
e 33 118
e 33 155
e 33 169
e 33 188
e 33 191
e 33 205
e 33 242
e 34 43
e 34 49
e 34 56
e 34 58
e 34 63
e 34 84
e 34 100
e 34 102
e 34 106
e 34 114
e 34 118
e 34 119
e 34 128
e 34 134
e 34 152
e 34 159
e 34 163
e 34 166
e 34 168
e 34 186
e 34 187
e 34 201
e 34 202
e 34 209
e 34 212
e 34 227
e 34 234
e 34 239
e 35 39
e 35 43
e 35 62
e 35 64
e 35 67
e 35 76
e 35 87
e 35 92
e 35 97
e 35 141
e 35 146
e 35 151
e 35 167
e 35 179
e 35 180
e 35 185
e 35 195
e 35 204
e 35 221
e 35 222
e 35 239
e 35 240
e 36 61
e 36 67
e 36 70
e 36 73
e 36 75
e 36 78
e 36 112
e 36 117
e 36 163
e 36 164
e 36 178
e 36 191
e 36 202
e 36 203
e 36 205
e 36 213
e 36 250
e 37 63
e 37 66
e 37 70
e 37 75
e 37 85
e 37 97
e 37 105
e 37 134
e 37 143
e 37 152
e 37 157
e 37 158
e 37 167
e 37 175
e 37 176
e 37 201
e 37 205
e 37 208
e 37 219
e 37 240
e 37 244
e 37 248
e 38 50
e 38 57
e 38 60
e 38 75
e 38 84
e 38 86
e 38 92
e 38 96
e 38 104
e 38 106
e 38 111
e 38 123
e 38 138
e 38 139
e 38 140
e 38 180
e 38 196
e 38 197
e 38 218
e 38 229
e 38 237
e 38 245
e 38 249
e 39 43
e 39 52
e 39 80
e 39 101
e 39 113
e 39 119
e 39 123
e 39 125
e 39 147
e 39 151
e 39 175
e 39 177
e 39 183
e 39 190
e 39 192
e 39 195
e 39 210
e 39 218
e 39 224
e 39 233
e 39 238
e 39 241
e 39 244
e 40 48
e 40 67
e 40 75
e 40 81
e 40 97
e 40 98
e 40 112
e 40 120
e 40 161
e 40 169
e 40 193
e 40 194
e 40 196
e 40 202
e 40 215
e 40 218
e 40 226
e 40 228
e 40 237
e 40 239
e 40 247
e 40 250
e 41 49
e 41 60
e 41 66
e 41 67
e 41 79
e 41 86
e 41 103
e 41 131
e 41 135
e 41 167
e 41 170
e 41 173
e 41 177
e 41 186
e 41 192
e 41 202
e 41 204
e 41 207
e 41 208
e 41 213
e 41 214
e 41 231
e 41 232
e 41 237
e 41 239
e 41 244
e 42 50
e 42 54
e 42 57
e 42 90
e 42 98
e 42 110
e 42 131
e 42 133
e 42 140
e 42 151
e 42 158
e 42 169
e 42 173
e 42 175
e 42 183
e 42 188
e 42 197
e 42 206
e 42 213
e 42 220
e 42 229
e 43 47
e 43 60
e 43 67
e 43 68
e 43 73
e 43 76
e 43 100
e 43 102
e 43 103
e 43 104
e 43 115
e 43 118
e 43 122
e 43 123
e 43 130
e 43 141
e 43 159
e 43 160
e 43 162
e 43 171
e 43 178
e 43 191
e 43 193
e 43 196
e 43 198
e 43 206
e 43 210
e 43 219
e 43 220
e 43 221
e 43 222
e 43 225
e 43 226
e 43 232
e 43 242
e 44 70
e 44 105
e 44 119
e 44 129
e 44 131
e 44 142
e 44 149
e 44 161
e 44 173
e 44 175
e 44 179
e 44 189
e 44 192
e 44 211
e 44 216
e 44 219
e 44 235
e 44 240
e 44 244
e 45 70
e 45 100
e 45 105
e 45 107
e 45 127
e 45 132
e 45 142
e 45 156
e 45 161
e 45 183
e 45 186
e 45 209
e 45 211
e 45 223
e 45 228
e 45 246
e 45 247
e 46 67
e 46 70
e 46 79
e 46 85
e 46 92
e 46 105
e 46 109
e 46 112
e 46 125
e 46 126
e 46 130
e 46 145
e 46 146
e 46 156
e 46 162
e 46 190
e 46 198
e 46 207
e 46 212
e 46 218
e 46 225
e 46 231
e 46 236
e 46 237
e 47 55
e 47 68
e 47 72
e 47 78
e 47 79
e 47 86
e 47 89
e 47 97
e 47 113
e 47 120
e 47 160
e 47 161
e 47 173
e 47 184
e 47 197
e 47 203
e 47 204
e 47 205
e 47 209
e 47 212
e 47 214
e 47 223
e 47 229
e 47 233
e 47 235
e 47 246
e 48 80
e 48 83
e 48 96
e 48 105
e 48 106
e 48 119
e 48 121
e 48 128
e 48 139
e 48 142
e 48 156
e 48 171
e 48 182
e 48 191
e 48 210
e 48 235
e 48 239
e 48 247
e 49 80
e 49 85
e 49 91
e 49 100
e 49 103
e 49 105
e 49 114
e 49 118
e 49 121
e 49 125
e 49 141
e 49 143
e 49 153
e 49 174
e 49 178
e 49 203
e 49 213
e 49 215
e 49 243
e 50 63
e 50 86
e 50 89
e 50 90
e 50 104
e 50 116
e 50 132
e 50 135
e 50 146
e 50 147
e 50 148
e 50 155
e 50 157
e 50 160
e 50 174
e 50 175
e 50 184
e 50 188
e 50 198
e 50 199
e 50 207
e 50 215
e 50 222
e 50 226
e 50 232
e 50 250
e 51 53
e 51 63
e 51 71
e 51 102
e 51 106
e 51 112
e 51 113
e 51 119
e 51 120
e 51 145
e 51 148
e 51 209
e 51 211
e 51 217
e 51 230
e 51 234
e 51 238
e 51 239
e 51 243
e 51 244
e 51 246
e 51 249
e 52 57
e 52 67
e 52 71
e 52 84
e 52 85
e 52 87
e 52 99
e 52 106
e 52 117
e 52 120
e 52 123
e 52 126
e 52 134
e 52 137
e 52 153
e 52 195
e 52 206
e 52 215
e 52 220
e 52 221
e 52 231
e 52 233
e 53 57
e 53 59
e 53 62
e 53 94
e 53 104
e 53 115
e 53 116
e 53 121
e 53 126
e 53 135
e 53 143
e 53 169
e 53 172
e 53 173
e 53 192
e 53 195
e 53 201
e 53 211
e 53 225
e 53 232
e 53 233
e 53 237
e 53 239
e 53 243
e 53 244
e 54 57
e 54 76
e 54 81
e 54 87
e 54 91
e 54 96
e 54 110
e 54 113
e 54 140
e 54 146
e 54 162
e 54 164
e 54 166
e 54 175
e 54 176
e 54 197
e 54 202
e 54 211
e 54 218
e 54 231
e 54 235
e 54 247
e 55 65
e 55 91
e 55 123
e 55 124
e 55 139
e 55 146
e 55 151
e 55 156
e 55 158
e 55 163
e 55 165
e 55 170
e 55 176
e 55 180
e 55 197
e 55 203
e 55 212
e 55 220
e 55 243
e 55 246
e 56 57
e 56 69
e 56 75
e 56 79
e 56 91
e 56 99
e 56 136
e 56 140
e 56 162
e 56 175
e 56 185
e 56 189
e 56 198
e 56 212
e 56 225
e 56 232
e 56 244
e 57 65
e 57 72
e 57 77
e 57 99
e 57 110
e 57 120
e 57 121
e 57 122
e 57 126
e 57 138
e 57 154
e 57 158
e 57 164
e 57 169
e 57 171
e 57 183
e 57 196
e 57 197
e 57 198
e 57 216
e 57 221
e 57 234
e 58 60
e 58 75
e 58 84
e 58 102
e 58 105
e 58 106
e 58 120
e 58 129
e 58 130
e 58 131
e 58 135
e 58 137
e 58 149
e 58 159
e 58 170
e 58 174
e 58 192
e 58 198
e 58 201
e 58 207
e 58 210
e 58 226
e 58 242
e 59 60
e 59 65
e 59 74
e 59 77
e 59 81
e 59 82
e 59 84
e 59 116
e 59 120
e 59 128
e 59 141
e 59 149
e 59 187
e 59 208
e 59 220
e 59 231
e 59 232
e 59 236
e 59 247
e 59 249
e 60 74
e 60 76
e 60 82
e 60 86
e 60 100
e 60 141
e 60 145
e 60 154
e 60 157
e 60 159
e 60 168
e 60 176
e 60 186
e 60 189
e 60 192
e 60 216
e 60 222
e 60 240
e 60 244
e 60 246
e 61 81
e 61 102
e 61 133
e 61 135
e 61 147
e 61 150
e 61 155
e 61 156
e 61 158
e 61 161
e 61 167
e 61 170
e 61 172
e 61 177
e 61 180
e 61 188
e 61 198
e 61 199
e 61 208
e 62 74
e 62 83
e 62 88
e 62 89
e 62 102
e 62 119
e 62 145
e 62 146
e 62 148
e 62 149
e 62 160
e 62 165
e 62 172
e 62 177
e 62 189
e 62 196
e 62 204
e 62 211
e 62 223
e 62 226
e 62 243
e 63 68
e 63 79
e 63 80
e 63 114
e 63 118
e 63 119
e 63 121
e 63 131
e 63 137
e 63 139
e 63 147
e 63 149
e 63 152
e 63 179
e 63 181
e 63 183
e 63 188
e 63 189
e 63 191
e 63 218
e 63 223
e 63 235
e 63 237
e 63 238
e 63 242
e 64 91
e 64 115
e 64 137
e 64 138
e 64 139
e 64 154
e 64 161
e 64 172
e 64 173
e 64 177
e 64 182
e 64 187
e 64 190
e 64 191
e 64 205
e 64 206
e 64 208
e 64 220
e 64 226
e 64 232
e 64 242
e 65 75
e 65 88
e 65 98
e 65 109
e 65 125
e 65 127
e 65 138
e 65 139
e 65 166
e 65 170
e 65 179
e 65 181
e 65 183
e 65 186
e 65 187
e 65 193
e 65 201
e 65 209
e 65 215
e 65 217
e 65 229
e 65 233
e 65 236
e 65 237
e 66 78
e 66 80
e 66 82
e 66 95
e 66 97
e 66 124
e 66 146
e 66 155
e 66 214
e 66 221
e 66 242
e 67 93
e 67 97
e 67 102
e 67 127
e 67 146
e 67 185
e 67 190
e 67 194
e 67 198
e 67 200
e 67 209
e 67 215
e 67 241
e 67 246
e 68 69
e 68 70
e 68 83
e 68 85
e 68 96
e 68 99
e 68 103
e 68 104
e 68 112
e 68 115
e 68 132
e 68 133
e 68 135
e 68 137
e 68 165
e 68 170
e 68 198
e 68 200
e 68 215
e 68 221
e 68 223
e 68 237
e 68 246
e 68 248
e 69 82
e 69 84
e 69 85
e 69 100
e 69 104
e 69 108
e 69 112
e 69 118
e 69 137
e 69 141
e 69 149
e 69 150
e 69 161
e 69 162
e 69 171
e 69 190
e 69 201
e 69 211
e 69 215
e 70 84
e 70 89
e 70 98
e 70 125
e 70 137
e 70 150
e 70 176
e 70 196
e 70 209
e 70 212
e 70 226
e 70 248
e 71 81
e 71 86
e 71 113
e 71 122
e 71 131
e 71 146
e 71 149
e 71 150
e 71 170
e 71 195
e 71 214
e 71 219
e 71 221
e 71 233
e 71 236
e 72 73
e 72 77
e 72 111
e 72 112
e 72 113
e 72 116
e 72 125
e 72 126
e 72 128
e 72 131
e 72 136
e 72 139
e 72 140
e 72 148
e 72 158
e 72 163
e 72 174
e 72 181
e 72 192
e 72 196
e 72 199
e 72 200
e 72 212
e 72 214
e 72 217
e 72 219
e 72 236
e 72 240
e 72 247
e 73 90
e 73 98
e 73 119
e 73 134
e 73 135
e 73 149
e 73 162
e 73 170
e 73 171
e 73 195
e 73 199
e 73 206
e 73 208
e 73 209
e 73 211
e 73 213
e 73 217
e 73 219
e 74 76
e 74 87
e 74 89
e 74 90
e 74 94
e 74 107
e 74 120
e 74 148
e 74 179
e 74 195
e 74 213
e 74 246
e 75 101
e 75 103
e 75 110
e 75 123
e 75 132
e 75 150
e 75 156
e 75 163
e 75 175
e 75 189
e 75 194
e 75 199
e 75 211
e 75 236
e 75 240
e 75 241
e 75 246
e 76 82
e 76 88
e 76 110
e 76 141
e 76 144
e 76 149
e 76 152
e 76 162
e 76 164
e 76 167
e 76 171
e 76 176
e 76 185
e 76 191
e 76 194
e 76 205
e 76 209
e 76 220
e 76 222
e 76 229
e 76 232
e 76 237
e 76 242
e 76 245
e 77 95
e 77 115
e 77 121
e 77 135
e 77 150
e 77 167
e 77 171
e 77 177
e 77 185
e 77 195
e 77 214
e 77 218
e 77 230
e 78 87
e 78 105
e 78 116
e 78 117
e 78 121
e 78 126
e 78 168
e 78 169
e 78 174
e 78 178
e 78 184
e 78 190
e 78 194
e 78 199
e 78 205
e 78 225
e 78 234
e 78 235
e 78 240
e 78 250
e 79 87
e 79 93
e 79 97
e 79 106
e 79 142
e 79 153
e 79 165
e 79 175
e 79 190
e 79 205
e 79 218
e 79 248
e 80 96
e 80 106
e 80 120
e 80 168
e 80 172
e 80 179
e 80 180
e 80 195
e 80 198
e 80 202
e 80 216
e 80 228
e 80 230
e 80 231
e 80 241
e 81 84
e 81 93
e 81 109
e 81 116
e 81 127
e 81 136
e 81 142
e 81 147
e 81 152
e 81 156
e 81 160
e 81 180
e 81 219
e 81 224
e 81 235
e 81 238
e 82 86
e 82 93
e 82 98
e 82 129
e 82 138
e 82 149
e 82 156
e 82 160
e 82 190
e 82 191
e 82 193
e 82 196
e 82 201
e 82 226
e 82 240
e 82 249
e 83 84
e 83 87
e 83 89
e 83 111
e 83 112
e 83 117
e 83 141
e 83 154
e 83 158
e 83 162
e 83 167
e 83 179
e 83 180
e 83 236
e 83 248
e 84 100
e 84 105
e 84 115
e 84 116
e 84 122
e 84 127
e 84 133
e 84 142
e 84 153
e 84 155
e 84 159
e 84 165
e 84 174
e 84 183
e 84 185
e 84 189
e 84 195
e 84 204
e 84 205
e 84 209
e 84 212
e 84 248
e 85 86
e 85 88
e 85 96
e 85 121
e 85 130
e 85 134
e 85 136
e 85 139
e 85 142
e 85 160
e 85 164
e 85 187
e 85 199
e 85 211
e 85 226
e 85 236
e 86 96
e 86 101
e 86 106
e 86 107
e 86 114
e 86 119
e 86 123
e 86 140
e 86 142
e 86 146
e 86 164
e 86 169
e 86 170
e 86 173
e 86 187
e 86 188
e 86 189
e 86 197
e 86 204
e 86 211
e 86 217
e 86 224
e 86 228
e 86 231
e 86 238
e 86 239
e 86 249
e 87 98
e 87 104
e 87 108
e 87 109
e 87 114
e 87 125
e 87 134
e 87 136
e 87 139
e 87 163
e 87 179
e 87 184
e 87 193
e 87 214
e 87 224
e 87 229
e 87 233
e 87 238
e 88 116
e 88 133
e 88 136
e 88 137
e 88 141
e 88 142
e 88 147
e 88 155
e 88 162
e 88 165
e 88 167
e 88 184
e 88 197
e 88 204
e 88 206
e 88 221
e 88 238
e 89 92
e 89 96
e 89 124
e 89 125
e 89 127
e 89 138
e 89 142
e 89 150
e 89 153
e 89 165
e 89 168
e 89 180
e 89 181
e 89 193
e 89 196
e 89 199
e 89 207
e 89 213
e 89 216
e 89 219
e 89 232
e 89 234
e 90 95
e 90 108
e 90 117
e 90 127
e 90 149
e 90 166
e 90 181
e 90 196
e 90 249
e 91 101
e 91 138
e 91 147
e 91 153
e 91 159
e 91 162
e 91 163
e 91 165
e 91 178
e 91 194
e 91 195
e 91 198
e 91 209
e 91 211
e 91 226
e 91 228
e 91 237
e 91 240
e 91 243
e 91 250
e 92 114
e 92 134
e 92 140
e 92 174
e 92 178
e 92 180
e 92 202
e 92 212
e 92 214
e 92 226
e 92 229
e 92 236
e 93 101
e 93 104
e 93 107
e 93 109
e 93 119
e 93 128
e 93 137
e 93 139
e 93 142
e 93 152
e 93 157
e 93 164
e 93 172
e 93 173
e 93 178
e 93 188
e 93 190
e 93 201
e 93 214
e 93 223
e 93 230
e 93 232
e 93 238
e 93 239
e 93 249
e 94 100
e 94 102
e 94 114
e 94 117
e 94 139
e 94 185
e 94 227
e 94 233
e 95 100
e 95 112
e 95 113
e 95 116
e 95 117
e 95 128
e 95 146
e 95 147
e 95 152
e 95 163
e 95 168
e 95 174
e 95 176
e 95 183
e 95 189
e 95 191
e 95 197
e 95 201
e 95 213
e 95 219
e 95 222
e 95 223
e 95 233
e 95 239
e 95 246
e 95 247
e 96 106
e 96 119
e 96 125
e 96 128
e 96 132
e 96 133
e 96 143
e 96 146
e 96 150
e 96 154
e 96 165
e 96 176
e 96 186
e 96 201
e 96 219
e 97 100
e 97 102
e 97 104
e 97 117
e 97 135
e 97 173
e 97 178
e 97 180
e 97 182
e 97 183
e 97 202
e 97 235
e 97 237
e 97 240
e 98 108
e 98 112
e 98 136
e 98 152
e 98 173
e 98 185
e 98 197
e 98 200
e 98 202
e 98 214
e 98 217
e 98 221
e 98 245
e 98 250
e 99 117
e 99 121
e 99 126
e 99 137
e 99 140
e 99 180
e 99 195
e 99 197
e 99 201
e 99 205
e 99 211
e 99 215
e 99 226
e 99 241
e 100 106
e 100 112
e 100 121
e 100 129
e 100 157
e 100 177
e 100 200
e 100 205
e 100 209
e 100 223
e 100 234
e 100 243
e 100 248
e 101 110
e 101 118
e 101 127
e 101 133
e 101 140
e 101 141
e 101 152
e 101 154
e 101 155
e 101 156
e 101 159
e 101 164
e 101 219
e 101 223
e 101 239
e 102 103
e 102 119
e 102 121
e 102 122
e 102 134
e 102 135
e 102 136
e 102 144
e 102 161
e 102 168
e 102 186
e 102 204
e 102 211
e 102 223
e 102 237
e 102 239
e 102 243
e 102 244
e 102 249
e 103 146
e 103 161
e 103 163
e 103 187
e 103 191
e 103 198
e 103 238
e 104 137
e 104 200
e 104 205
e 104 224
e 104 227
e 104 229
e 104 230
e 104 237
e 105 118
e 105 119
e 105 121
e 105 127
e 105 131
e 105 184
e 105 192
e 105 196
e 105 214
e 105 219
e 105 248
e 106 119
e 106 127
e 106 144
e 106 148
e 106 151
e 106 170
e 106 175
e 106 181
e 106 194
e 106 199
e 106 216
e 106 218
e 106 222
e 107 109
e 107 130
e 107 137
e 107 170
e 107 179
e 107 191
e 107 201
e 107 206
e 107 212
e 107 214
e 107 231
e 107 247
e 107 250
e 108 150
e 108 162
e 108 187
e 108 192
e 108 209
e 108 211
e 109 117
e 109 120
e 109 123
e 109 133
e 109 156
e 109 163
e 109 167
e 109 198
e 109 200
e 109 204
e 109 211
e 109 213
e 109 226
e 109 228
e 109 234
e 109 240
e 110 114
e 110 132
e 110 133
e 110 136
e 110 138
e 110 139
e 110 144
e 110 145
e 110 149
e 110 160
e 110 163
e 110 168
e 110 171
e 110 201
e 110 241
e 110 247
e 111 117
e 111 121
e 111 130
e 111 131
e 111 138
e 111 141
e 111 147
e 111 151
e 111 152
e 111 161
e 111 203
e 111 207
e 111 211
e 111 232
e 111 240
e 111 243
e 111 247
e 112 113
e 112 131
e 112 139
e 112 140
e 112 150
e 112 166
e 112 167
e 112 175
e 112 183
e 112 202
e 112 209
e 112 215
e 112 219
e 112 230
e 112 231
e 112 233
e 112 237
e 112 243
e 113 114
e 113 125
e 113 145
e 113 147
e 113 152
e 113 153
e 113 160
e 113 163
e 113 174
e 113 177
e 113 179
e 113 190
e 113 194
e 113 197
e 113 212
e 113 215
e 113 219
e 113 221
e 113 229
e 113 234
e 114 120
e 114 124
e 114 139
e 114 142
e 114 157
e 114 170
e 114 180
e 114 203
e 114 207
e 114 211
e 114 214
e 114 215
e 114 221
e 114 224
e 114 233
e 114 234
e 114 249
e 114 250
e 115 135
e 115 147
e 115 160
e 115 162
e 115 170
e 115 173
e 115 174
e 115 182
e 115 184
e 115 186
e 115 202
e 115 206
e 115 208
e 115 211
e 115 212
e 115 230
e 115 231
e 115 239
e 115 242
e 116 130
e 116 137
e 116 139
e 116 145
e 116 176
e 116 186
e 116 188
e 116 191
e 116 218
e 116 220
e 116 236
e 116 237
e 117 144
e 117 151
e 117 156
e 117 158
e 117 162
e 117 167
e 117 172
e 117 194
e 117 201
e 117 209
e 117 212
e 117 213
e 117 222
e 117 227
e 117 240
e 118 136
e 118 151
e 118 159
e 118 165
e 118 167
e 118 194
e 118 196
e 118 199
e 118 224
e 118 229
e 118 230
e 118 233
e 118 246
e 119 121
e 119 130
e 119 137
e 119 144
e 119 145
e 119 159
e 119 182
e 119 193
e 119 199
e 119 215
e 119 229
e 120 137
e 120 147
e 120 175
e 120 182
e 120 191
e 120 196
e 120 202
e 120 206
e 120 222
e 120 233
e 120 248
e 120 250
e 121 130
e 121 140
e 121 153
e 121 162
e 121 166
e 121 167
e 121 178
e 121 184
e 121 189
e 121 195
e 121 200
e 121 207
e 121 210
e 121 228
e 121 233
e 121 238
e 121 248
e 122 128
e 122 134
e 122 139
e 122 151
e 122 156
e 122 157
e 122 158
e 122 175
e 122 180
e 122 188
e 122 204
e 122 205
e 122 221
e 122 225
e 122 231
e 122 235
e 122 239
e 122 240
e 122 246
e 122 250
e 123 130
e 123 151
e 123 172
e 123 187
e 123 192
e 123 223
e 123 229
e 123 233
e 123 234
e 123 250
e 124 135
e 124 136
e 124 143
e 124 148
e 124 163
e 124 166
e 124 176
e 124 186
e 124 201
e 124 225
e 125 136
e 125 139
e 125 156
e 125 182
e 125 190
e 125 216
e 125 219
e 125 231
e 125 232
e 125 248
e 126 133
e 126 147
e 126 158
e 126 184
e 126 190
e 126 192
e 126 217
e 126 224
e 126 230
e 126 233
e 127 135
e 127 139
e 127 160
e 127 161
e 127 167
e 127 175
e 127 179
e 127 186
e 127 192
e 127 195
e 127 196
e 127 202
e 127 215
e 127 216
e 127 218
e 127 230
e 127 244
e 128 130
e 128 135
e 128 136
e 128 137
e 128 159
e 128 163
e 128 213
e 128 214
e 128 221
e 128 240
e 128 241
e 128 245
e 129 133
e 129 140
e 129 157
e 129 174
e 129 183
e 129 195
e 129 204
e 129 206
e 129 208
e 129 231
e 130 160
e 130 175
e 130 183
e 130 195
e 130 197
e 130 231
e 130 244
e 131 132
e 131 152
e 131 162
e 131 177
e 131 181
e 131 193
e 131 198
e 131 201
e 131 203
e 131 212
e 131 225
e 131 231
e 132 166
e 132 168
e 132 172
e 132 181
e 132 202
e 132 215
e 133 134
e 133 156
e 133 162
e 133 176
e 133 177
e 133 186
e 133 189
e 133 218
e 134 181
e 134 199
e 134 203
e 134 209
e 134 224
e 134 231
e 134 232
e 134 239
e 134 249
e 135 161
e 135 203
e 135 219
e 135 232
e 135 233
e 135 234
e 135 238
e 135 239
e 136 138
e 136 142
e 136 166
e 136 171
e 136 174
e 136 200
e 136 215
e 136 222
e 136 225
e 136 226
e 136 235
e 136 246
e 136 247
e 137 141
e 137 143
e 137 149
e 137 150
e 137 164
e 137 165
e 137 170
e 137 177
e 137 209
e 138 143
e 138 146
e 138 154
e 138 161
e 138 165
e 138 166
e 138 168
e 138 174
e 138 177
e 138 183
e 138 188
e 138 189
e 138 190
e 138 192
e 138 199
e 138 205
e 138 227
e 138 230
e 138 232
e 138 233
e 138 236
e 139 165
e 139 173
e 139 175
e 139 180
e 139 186
e 139 193
e 139 195
e 139 205
e 139 207
e 139 223
e 139 226
e 139 233
e 140 154
e 140 174
e 140 206
e 140 211
e 140 213
e 140 215
e 140 224
e 140 225
e 140 232
e 140 236
e 141 143
e 141 145
e 141 162
e 142 154
e 142 189
e 142 208
e 142 209
e 142 213
e 142 229
e 142 245
e 143 146
e 143 163
e 143 167
e 143 169
e 143 174
e 143 180
e 143 186
e 143 206
e 143 224
e 143 235
e 143 237
e 144 149
e 144 152
e 144 166
e 144 168
e 144 191
e 144 210
e 144 213
e 144 215
e 144 216
e 144 236
e 144 240
e 144 248
e 145 148
e 145 157
e 145 167
e 145 191
e 145 192
e 145 224
e 146 154
e 146 162
e 146 174
e 146 194
e 146 202
e 146 205
e 146 212
e 146 217
e 146 218
e 146 223
e 146 245
e 147 165
e 147 176
e 147 193
e 147 205
e 147 209
e 147 241
e 147 245
e 147 246
e 148 150
e 148 172
e 148 178
e 148 231
e 148 237
e 149 151
e 149 180
e 149 181
e 149 192
e 149 193
e 149 201
e 149 209
e 149 226
e 149 233
e 150 153
e 150 155
e 150 160
e 150 172
e 150 175
e 150 176
e 150 178
e 150 184
e 150 185
e 150 188
e 150 190
e 150 197
e 150 201
e 150 207
e 150 210
e 150 214
e 150 216
e 150 219
e 150 223
e 150 224
e 150 244
e 151 156
e 151 164
e 151 186
e 151 190
e 151 204
e 151 211
e 151 217
e 151 219
e 151 222
e 151 250
e 152 171
e 152 172
e 152 196
e 152 198
e 152 199
e 152 211
e 152 235
e 152 242
e 152 244
e 153 161
e 153 173
e 153 182
e 153 185
e 153 192
e 153 214
e 153 225
e 153 243
e 153 247
e 154 156
e 154 187
e 154 194
e 154 198
e 154 202
e 154 214
e 154 217
e 154 234
e 154 248
e 155 162
e 155 165
e 155 171
e 155 172
e 155 198
e 155 207
e 155 228
e 155 237
e 155 246
e 156 164
e 156 169
e 156 174
e 156 180
e 156 194
e 156 203
e 156 211
e 156 215
e 156 216
e 156 217
e 156 226
e 156 242
e 157 158
e 157 165
e 157 177
e 157 183
e 157 209
e 157 216
e 157 221
e 157 229
e 157 234
e 157 240
e 157 243
e 157 250
e 158 165
e 158 185
e 158 188
e 158 204
e 158 208
e 158 216
e 158 231
e 158 245
e 159 161
e 159 175
e 159 179
e 159 184
e 159 185
e 159 189
e 159 200
e 159 201
e 159 206
e 159 218
e 159 226
e 159 235
e 159 240
e 159 242
e 159 243
e 159 249
e 160 175
e 160 176
e 160 182
e 160 186
e 160 191
e 160 196
e 160 202
e 160 207
e 160 231
e 160 238
e 161 162
e 161 195
e 161 208
e 161 211
e 161 214
e 161 217
e 161 220
e 161 232
e 161 236
e 162 176
e 162 177
e 162 214
e 163 174
e 163 181
e 163 184
e 163 187
e 163 196
e 163 210
e 163 214
e 163 215
e 163 216
e 163 224
e 163 226
e 163 231
e 163 245
e 164 172
e 164 176
e 164 193
e 164 212
e 164 218
e 164 224
e 164 230
e 164 234
e 164 249
e 165 176
e 165 177
e 165 179
e 165 189
e 165 190
e 165 194
e 165 196
e 165 197
e 165 211
e 165 215
e 165 244
e 165 246
e 165 248
e 166 171
e 166 172
e 166 178
e 166 190
e 166 203
e 166 208
e 166 210
e 166 221
e 166 222
e 166 230
e 166 240
e 166 241
e 166 244
e 167 173
e 167 174
e 167 178
e 167 186
e 167 190
e 167 211
e 167 216
e 167 224
e 167 225
e 167 232
e 167 248
e 168 174
e 168 176
e 168 177
e 168 185
e 168 188
e 168 200
e 168 204
e 168 211
e 168 232
e 168 234
e 168 238
e 169 173
e 169 185
e 169 195
e 169 211
e 169 226
e 170 192
e 170 204
e 170 208
e 170 220
e 170 224
e 170 234
e 171 173
e 171 181
e 171 186
e 171 194
e 171 205
e 171 213
e 171 235
e 171 241
e 171 246
e 172 189
e 172 205
e 172 213
e 172 226
e 172 244
e 172 245
e 172 247
e 173 196
e 173 201
e 173 206
e 173 223
e 173 224
e 173 241
e 173 243
e 173 245
e 174 183
e 174 209
e 174 216
e 174 222
e 174 223
e 174 230
e 175 187
e 175 204
e 175 215
e 175 217
e 175 224
e 175 242
e 176 194
e 176 196
e 176 209
e 176 224
e 176 227
e 176 243
e 177 180
e 177 186
e 177 189
e 177 193
e 177 208
e 177 235
e 177 236
e 177 237
e 178 187
e 178 189
e 178 190
e 178 191
e 178 196
e 178 210
e 178 218
e 178 226
e 178 228
e 178 231
e 178 241
e 178 243
e 178 244
e 178 248
e 179 196
e 179 220
e 179 231
e 179 242
e 179 246
e 180 181
e 180 199
e 180 215
e 180 216
e 180 224
e 180 227
e 180 234
e 180 247
e 181 200
e 181 218
e 181 236
e 182 188
e 182 208
e 182 211
e 182 217
e 182 222
e 182 239
e 182 242
e 183 190
e 183 197
e 183 236
e 183 239
e 183 247
e 183 250
e 184 189
e 184 203
e 184 216
e 184 220
e 184 231
e 184 232
e 184 234
e 184 247
e 184 249
e 184 250
e 185 198
e 185 201
e 185 227
e 185 229
e 185 235
e 185 245
e 185 248
e 186 187
e 186 211
e 186 226
e 186 232
e 186 233
e 186 241
e 186 243
e 186 247
e 187 188
e 187 193
e 187 204
e 187 210
e 187 216
e 187 221
e 187 232
e 188 206
e 188 209
e 188 223
e 188 227
e 188 230
e 188 249
e 189 195
e 189 197
e 189 202
e 189 207
e 189 230
e 189 231
e 189 245
e 190 194
e 190 195
e 190 245
e 191 201
e 191 233
e 191 238
e 191 239
e 192 198
e 192 210
e 192 219
e 192 234
e 193 204
e 193 206
e 193 207
e 193 231
e 193 244
e 194 213
e 194 238
e 194 242
e 195 218
e 195 223
e 195 231
e 195 234
e 195 238
e 195 239
e 195 246
e 195 248
e 195 249
e 196 215
e 196 228
e 196 237
e 196 238
e 197 204
e 197 205
e 197 209
e 197 211
e 197 217
e 197 218
e 197 221
e 197 227
e 197 229
e 197 247
e 197 249
e 198 202
e 198 204
e 198 209
e 198 229
e 198 247
e 199 203
e 199 205
e 199 209
e 199 218
e 199 224
e 199 228
e 199 234
e 199 240
e 199 246
e 199 247
e 200 208
e 200 210
e 200 234
e 201 202
e 201 211
e 201 220
e 201 221
e 201 224
e 201 227
e 201 239
e 202 238
e 202 241
e 203 219
e 203 230
e 203 250
e 204 214
e 204 216
e 204 224
e 204 242
e 205 215
e 205 228
e 205 245
e 205 247
e 206 223
e 206 237
e 206 238
e 207 240
e 208 237
e 208 242
e 208 243
e 209 224
e 209 234
e 209 237
e 209 244
e 209 250
e 210 217
e 210 242
e 210 249
e 210 250
e 211 212
e 211 214
e 211 220
e 211 227
e 211 230
e 211 232
e 211 236
e 212 223
e 212 224
e 212 233
e 212 235
e 212 236
e 213 217
e 213 224
e 213 237
e 213 243
e 214 217
e 214 234
e 214 236
e 214 237
e 214 249
e 215 229
e 215 232
e 215 250
e 216 218
e 216 221
e 216 229
e 216 231
e 217 228
e 218 219
e 219 229
e 219 231
e 219 235
e 219 247
e 219 249
e 220 221
e 220 222
e 220 223
e 220 244
e 221 234
e 221 236
e 221 250
e 222 226
e 222 227
e 222 240
e 223 227
e 223 228
e 223 246
e 224 232
e 224 237
e 225 234
e 225 238
e 226 244
e 227 237
e 227 240
e 227 250
e 228 229
e 228 237
e 228 241
e 228 245
e 229 232
e 229 241
e 229 245
e 230 244
e 230 248
e 232 233
e 233 250
e 234 241
e 235 236
e 235 245
e 236 243
e 240 241
e 241 243
e 244 245
e 249 250
